Multicommodity_Capacitated_Plant_Location_Problem.lp
\ENCODING=ISO-8859-1
\Problem name: ilog.cplex

Minimize
 obj: 500 y(1)#0 + 483.333333333333 y(2)#1 + 600 y(3)#2
      + 583.333333333333 y(4)#3 + 633.333333333333 y(5)#4 + 49.41 x1(1)(2)#6
      + 72 x1(1)(3)#7 + 173.01 x1(1)(4)#8 + 24.75 x1(1)(5)#9 + 69.6 x1(1)(6)#10
      + 86.4 x1(1)(7)#11 + 82.35 x1(1)(8)#12 + 76.95 x1(2)(1)#13
      + 37.44 x1(2)(3)#15 + 100.74 x1(2)(4)#16 + 34.65 x1(2)(5)#17
      + 63.6 x1(2)(6)#18 + 79.2 x1(2)(7)#19 + 69.54 x1(2)(8)#20
      + 142.5 x1(3)(1)#21 + 47.58 x1(3)(2)#22 + 148.92 x1(3)(4)#24
      + 99 x1(3)(5)#25 + 16.8 x1(3)(6)#26 + 80 x1(3)(7)#27 + 102.48 x1(3)(8)#28
      + 225.15 x1(4)(1)#29 + 84.18 x1(4)(2)#30 + 97.92 x1(4)(3)#31
      + 92.4 x1(4)(5)#33 + 111.6 x1(4)(6)#34 + 62.4 x1(4)(7)#35
      + 80.52 x1(4)(8)#36 + 42.75 x1(5)(1)#37 + 38.43 x1(5)(2)#38
      + 86.4 x1(5)(3)#39 + 122.64 x1(5)(4)#40 + 45.6 x1(5)(6)#42
      + 60 x1(5)(7)#43 + 102.48 x1(5)(8)#44 + 50.22 x2(1)(2)#46
      + 46.5 x2(1)(3)#47 + 116.13 x2(1)(4)#48 + 39.15 x2(1)(5)#49
      + 20.88 x2(1)(6)#50 + 43.2 x2(1)(7)#51 + 71.55 x2(1)(8)#52
      + 25.92 x2(2)(1)#53 + 24.18 x2(2)(3)#55 + 67.62 x2(2)(4)#56
      + 54.81 x2(2)(5)#57 + 19.08 x2(2)(6)#58 + 39.6 x2(2)(7)#59
      + 60.42 x2(2)(8)#60 + 48 x2(3)(1)#61 + 48.36 x2(3)(2)#62
      + 99.96 x2(3)(4)#64 + 156.6 x2(3)(5)#65 + 5.04 x2(3)(6)#66
      + 90 x2(3)(7)#67 + 89.04 x2(3)(8)#68 + 75.84 x2(4)(1)#69
      + 85.56 x2(4)(2)#70 + 63.24 x2(4)(3)#71 + 146.16 x2(4)(5)#73
      + 33.48 x2(4)(6)#74 + 31.2 x2(4)(7)#75 + 69.96 x2(4)(8)#76
      + 14.4 x2(5)(1)#77 + 39.06 x2(5)(2)#78 + 55.8 x2(5)(3)#79
      + 82.32 x2(5)(4)#80 + 13.68 x2(5)(6)#82 + 30 x2(5)(7)#83
      + 89.04 x2(5)(8)#84
Subject To
 c1:  x1(1)(1)#5 + x1(2)(1)#13 + x1(3)(1)#21 + x1(4)(1)#29 + x1(5)(1)#37  = 1
 c3:  x1(1)(2)#6 + x1(2)(2)#14 + x1(3)(2)#22 + x1(4)(2)#30 + x1(5)(2)#38  = 1
 c5:  x1(1)(3)#7 + x1(2)(3)#15 + x1(3)(3)#23 + x1(4)(3)#31 + x1(5)(3)#39  = 1
 c7:  x1(1)(4)#8 + x1(2)(4)#16 + x1(3)(4)#24 + x1(4)(4)#32 + x1(5)(4)#40  = 1
 c9:  x1(1)(5)#9 + x1(2)(5)#17 + x1(3)(5)#25 + x1(4)(5)#33 + x1(5)(5)#41  = 1
 c11: x1(1)(6)#10 + x1(2)(6)#18 + x1(3)(6)#26 + x1(4)(6)#34 + x1(5)(6)#42  = 1
 c13: x1(1)(7)#11 + x1(2)(7)#19 + x1(3)(7)#27 + x1(4)(7)#35 + x1(5)(7)#43  = 1
 c15: x1(1)(8)#12 + x1(2)(8)#20 + x1(3)(8)#28 + x1(4)(8)#36 + x1(5)(8)#44  = 1
 c17: x2(1)(1)#45 + x2(2)(1)#53 + x2(3)(1)#61 + x2(4)(1)#69 + x2(5)(1)#77  = 1
 c19: x2(1)(2)#46 + x2(2)(2)#54 + x2(3)(2)#62 + x2(4)(2)#70 + x2(5)(2)#78  = 1
 c21: x2(1)(3)#47 + x2(2)(3)#55 + x2(3)(3)#63 + x2(4)(3)#71 + x2(5)(3)#79  = 1
 c23: x2(1)(4)#48 + x2(2)(4)#56 + x2(3)(4)#64 + x2(4)(4)#72 + x2(5)(4)#80  = 1
 c25: x2(1)(5)#49 + x2(2)(5)#57 + x2(3)(5)#65 + x2(4)(5)#73 + x2(5)(5)#81  = 1
 c26: x2(1)(6)#50 + x2(2)(6)#58 + x2(3)(6)#66 + x2(4)(6)#74 + x2(5)(6)#82  = 1
 c27: x2(1)(7)#51 + x2(2)(7)#59 + x2(3)(7)#67 + x2(4)(7)#75 + x2(5)(7)#83  = 1
 c28: x2(1)(8)#52 + x2(2)(8)#60 + x2(3)(8)#68 + x2(4)(8)#76 + x2(5)(8)#84  = 1
 c29: - 60 y(1)#0 + 9.5 x1(1)(1)#5 + 6.1 x1(1)(2)#6 + 4.8 x1(1)(3)#7
      + 7.3 x1(1)(4)#8 + 5.5 x1(1)(5)#9 + 4 x1(1)(6)#10 + 8 x1(1)(7)#11
      + 6.1 x1(1)(8)#12 + 3.2 x2(1)(1)#45 + 6.2 x2(1)(2)#46 + 3.1 x2(1)(3)#47
      + 4.9 x2(1)(4)#48 + 8.7 x2(1)(5)#49 + 1.2 x2(1)(6)#50 + 4 x2(1)(7)#51
      + 5.3 x2(1)(8)#52 <= 0
 c30: - 42 y(2)#1 + 9.5 x1(2)(1)#13 + 6.1 x1(2)(2)#14 + 4.8 x1(2)(3)#15
      + 7.3 x1(2)(4)#16 + 5.5 x1(2)(5)#17 + 4 x1(2)(6)#18 + 8 x1(2)(7)#19
      + 6.1 x1(2)(8)#20 + 3.2 x2(2)(1)#53 + 6.2 x2(2)(2)#54 + 3.1 x2(2)(3)#55
      + 4.9 x2(2)(4)#56 + 8.7 x2(2)(5)#57 + 1.2 x2(2)(6)#58 + 4 x2(2)(7)#59
      + 5.3 x2(2)(8)#60 <= 0
 c31: - 58 y(3)#2 + 9.5 x1(3)(1)#21 + 6.1 x1(3)(2)#22 + 4.8 x1(3)(3)#23
      + 7.3 x1(3)(4)#24 + 5.5 x1(3)(5)#25 + 4 x1(3)(6)#26 + 8 x1(3)(7)#27
      + 6.1 x1(3)(8)#28 + 3.2 x2(3)(1)#61 + 6.2 x2(3)(2)#62 + 3.1 x2(3)(3)#63
      + 4.9 x2(3)(4)#64 + 8.7 x2(3)(5)#65 + 1.2 x2(3)(6)#66 + 4 x2(3)(7)#67
      + 5.3 x2(3)(8)#68 <= 0
 c32: - 41 y(4)#3 + 9.5 x1(4)(1)#29 + 6.1 x1(4)(2)#30 + 4.8 x1(4)(3)#31
      + 7.3 x1(4)(4)#32 + 5.5 x1(4)(5)#33 + 4 x1(4)(6)#34 + 8 x1(4)(7)#35
      + 6.1 x1(4)(8)#36 + 3.2 x2(4)(1)#69 + 6.2 x2(4)(2)#70 + 3.1 x2(4)(3)#71
      + 4.9 x2(4)(4)#72 + 8.7 x2(4)(5)#73 + 1.2 x2(4)(6)#74 + 4 x2(4)(7)#75
      + 5.3 x2(4)(8)#76 <= 0
 c33: - 60 y(5)#4 + 9.5 x1(5)(1)#37 + 6.1 x1(5)(2)#38 + 4.8 x1(5)(3)#39
      + 7.3 x1(5)(4)#40 + 5.5 x1(5)(5)#41 + 4 x1(5)(6)#42 + 8 x1(5)(7)#43
      + 6.1 x1(5)(8)#44 + 3.2 x2(5)(1)#77 + 6.2 x2(5)(2)#78 + 3.1 x2(5)(3)#79
      + 4.9 x2(5)(4)#80 + 8.7 x2(5)(5)#81 + 1.2 x2(5)(6)#82 + 4 x2(5)(7)#83
      + 5.3 x2(5)(8)#84 <= 0
Bounds
 0 <= y(1)#0 <= 1
 0 <= y(2)#1 <= 1
 0 <= y(3)#2 <= 1
 0 <= y(4)#3 <= 1
 0 <= y(5)#4 <= 1
 0 <= x1(1)(1)#5 <= 1
 0 <= x1(1)(2)#6 <= 1
 0 <= x1(1)(3)#7 <= 1
 0 <= x1(1)(4)#8 <= 1
 0 <= x1(1)(5)#9 <= 1
 0 <= x1(1)(6)#10 <= 1
 0 <= x1(1)(7)#11 <= 1
 0 <= x1(1)(8)#12 <= 1
 0 <= x1(2)(1)#13 <= 1
 0 <= x1(2)(2)#14 <= 1
 0 <= x1(2)(3)#15 <= 1
 0 <= x1(2)(4)#16 <= 1
 0 <= x1(2)(5)#17 <= 1
 0 <= x1(2)(6)#18 <= 1
 0 <= x1(2)(7)#19 <= 1
 0 <= x1(2)(8)#20 <= 1
 0 <= x1(3)(1)#21 <= 1
 0 <= x1(3)(2)#22 <= 1
 0 <= x1(3)(3)#23 <= 1
 0 <= x1(3)(4)#24 <= 1
 0 <= x1(3)(5)#25 <= 1
 0 <= x1(3)(6)#26 <= 1
 0 <= x1(3)(7)#27 <= 1
 0 <= x1(3)(8)#28 <= 1
 0 <= x1(4)(1)#29 <= 1
 0 <= x1(4)(2)#30 <= 1
 0 <= x1(4)(3)#31 <= 1
 0 <= x1(4)(4)#32 <= 1
 0 <= x1(4)(5)#33 <= 1
 0 <= x1(4)(6)#34 <= 1
 0 <= x1(4)(7)#35 <= 1
 0 <= x1(4)(8)#36 <= 1
 0 <= x1(5)(1)#37 <= 1
 0 <= x1(5)(2)#38 <= 1
 0 <= x1(5)(3)#39 <= 1
 0 <= x1(5)(4)#40 <= 1
 0 <= x1(5)(5)#41 <= 1
 0 <= x1(5)(6)#42 <= 1
 0 <= x1(5)(7)#43 <= 1
 0 <= x1(5)(8)#44 <= 1
 0 <= x2(1)(1)#45 <= 1
 0 <= x2(1)(2)#46 <= 1
 0 <= x2(1)(3)#47 <= 1
 0 <= x2(1)(4)#48 <= 1
 0 <= x2(1)(5)#49 <= 1
 0 <= x2(1)(6)#50 <= 1
 0 <= x2(1)(7)#51 <= 1
 0 <= x2(1)(8)#52 <= 1
 0 <= x2(2)(1)#53 <= 1
 0 <= x2(2)(2)#54 <= 1
 0 <= x2(2)(3)#55 <= 1
 0 <= x2(2)(4)#56 <= 1
 0 <= x2(2)(5)#57 <= 1
 0 <= x2(2)(6)#58 <= 1
 0 <= x2(2)(7)#59 <= 1
 0 <= x2(2)(8)#60 <= 1
 0 <= x2(3)(1)#61 <= 1
 0 <= x2(3)(2)#62 <= 1
 0 <= x2(3)(3)#63 <= 1
 0 <= x2(3)(4)#64 <= 1
 0 <= x2(3)(5)#65 <= 1
 0 <= x2(3)(6)#66 <= 1
 0 <= x2(3)(7)#67 <= 1
 0 <= x2(3)(8)#68 <= 1
 0 <= x2(4)(1)#69 <= 1
 0 <= x2(4)(2)#70 <= 1
 0 <= x2(4)(3)#71 <= 1
 0 <= x2(4)(4)#72 <= 1
 0 <= x2(4)(5)#73 <= 1
 0 <= x2(4)(6)#74 <= 1
 0 <= x2(4)(7)#75 <= 1
 0 <= x2(4)(8)#76 <= 1
 0 <= x2(5)(1)#77 <= 1
 0 <= x2(5)(2)#78 <= 1
 0 <= x2(5)(3)#79 <= 1
 0 <= x2(5)(4)#80 <= 1
 0 <= x2(5)(5)#81 <= 1
 0 <= x2(5)(6)#82 <= 1
 0 <= x2(5)(7)#83 <= 1
 0 <= x2(5)(8)#84 <= 1
Binaries
 y(1)#0  y(2)#1  y(3)#2  y(4)#3  y(5)#4 
End
