Multicommodity_Capacitated_Plant_Location_Problem.log
Tried aggregator 1 time.
Reduced MIP has 21 rows, 85 columns, and 165 nonzeros.
Reduced MIP has 5 binaries, 0 generals, 0 SOSs, and 0 indicators.
Presolve time = 0.09 sec. (0.05 ticks)
Found incumbent of value 3777.550000 after 0.28 sec. (0.24 ticks)
Probing time = 0.00 sec. (0.01 ticks)
Tried aggregator 1 time.
Reduced MIP has 21 rows, 85 columns, and 165 nonzeros.
Reduced MIP has 5 binaries, 0 generals, 0 SOSs, and 0 indicators.
Presolve time = 0.00 sec. (0.08 ticks)
Probing time = 0.00 sec. (0.01 ticks)
MIP emphasis: balance optimality and feasibility.
MIP search method: dynamic search.
Parallel mode: deterministic, using up to 4 threads.
Root relaxation solution time = 0.03 sec. (0.04 ticks)

        Nodes                                         Cuts/
   Node  Left     Objective  IInf  Best Integer    Best Bound    ItCnt     Gap

*     0+    0                         3777.5500        0.0000       15  100.00%
      0     0     1193.7710     5     3777.5500     1193.7710       15   68.40%
*     0+    0                         3041.8000     1193.7710       15   60.75%
*     0+    0                         1837.4633     1193.7710       15   35.03%
      0     0     1516.8086     3     1837.4633      Cuts: 21       37   17.45%
*     0+    0                         1631.0333     1516.8086       37    7.00%
      0     0     1544.0824     4     1631.0333      Cuts: 27       54    5.33%
      0     0     1557.0435     3     1631.0333      Cuts: 25       65    4.54%
      0     0     1557.0435     3     1631.0333      Cuts: 13       70    4.54%
      0     0     1558.4202     1     1631.0333      Cuts: 10       78    4.45%
      0     0     1559.9425     3     1631.0333      Cuts: 14       85    4.36%
      0     0     1559.9425     3     1631.0333       Cuts: 5       86    4.36%
      0     0        cutoff           1631.0333     1631.0333       86    0.00%
Elapsed time = 0.42 sec. (4.48 ticks, tree = 0.00 MB, solutions = 4)

Implied bound cuts applied:  28
Flow cuts applied:  4
Mixed integer rounding cuts applied:  9
Gomory fractional cuts applied:  3

Root node processing (before b&c):
  Real time             =    0.42 sec. (4.49 ticks)
Parallel b&c, 4 threads:
  Real time             =    0.00 sec. (0.00 ticks)
  Sync time (average)   =    0.00 sec.
  Wait time (average)   =    0.00 sec.
                          ------------
Total (root+branch&cut) =    0.42 sec. (4.49 ticks)

Solution status = Optimal

La domanda totale e'=87.90000000000002
La capacita' totale e'=261.0
Il valore di funzione obiettivo e':1631.0333333333333
Il valore delle variabili y e':
y[1]=1.0
y[2]=1.0
y[3]=0.0
y[4]=0.0
y[5]=-0.0
Il valore delle variabili x1 e':
x1[1][1]=1.0
x1[1][2]=0.0
x1[1][3]=0.0
x1[1][4]=0.0
x1[1][5]=1.0
x1[1][6]=1.0
x1[1][7]=1.0
x1[1][8]=0.0
x1[2][1]=0.0
x1[2][2]=1.0
x1[2][3]=1.0
x1[2][4]=1.0
x1[2][5]=0.0
x1[2][6]=0.0
x1[2][7]=0.0
x1[2][8]=1.0
x1[3][1]=0.0
x1[3][2]=0.0
x1[3][3]=0.0
x1[3][4]=0.0
x1[3][5]=0.0
x1[3][6]=0.0
x1[3][7]=0.0
x1[3][8]=0.0
x1[4][1]=0.0
x1[4][2]=0.0
x1[4][3]=0.0
x1[4][4]=0.0
x1[4][5]=0.0
x1[4][6]=0.0
x1[4][7]=0.0
x1[4][8]=0.0
x1[5][1]=0.0
x1[5][2]=0.0
x1[5][3]=0.0
x1[5][4]=0.0
x1[5][5]=0.0
x1[5][6]=0.0
x1[5][7]=0.0
x1[5][8]=0.0
Il valore delle variabili x2 e':
x2[1][1]=1.0
x2[1][2]=0.0
x2[1][3]=0.0
x2[1][4]=0.0
x2[1][5]=1.0
x2[1][6]=1.0
x2[1][7]=1.0
x2[1][8]=0.33962264150943344
x2[2][1]=0.0
x2[2][2]=1.0
x2[2][3]=1.0
x2[2][4]=1.0
x2[2][5]=0.0
x2[2][6]=0.0
x2[2][7]=0.0
x2[2][8]=0.6603773584905666
x2[3][1]=0.0
x2[3][2]=0.0
x2[3][3]=0.0
x2[3][4]=0.0
x2[3][5]=0.0
x2[3][6]=0.0
x2[3][7]=0.0
x2[3][8]=0.0
x2[4][1]=0.0
x2[4][2]=0.0
x2[4][3]=0.0
x2[4][4]=0.0
x2[4][5]=0.0
x2[4][6]=0.0
x2[4][7]=0.0
x2[4][8]=0.0
x2[5][1]=0.0
x2[5][2]=0.0
x2[5][3]=0.0
x2[5][4]=0.0
x2[5][5]=0.0
x2[5][6]=0.0
x2[5][7]=0.0
x2[5][8]=0.0
